p cnf 158 854
a 21 19 17 15 13 11 9 0
e 1 2 3 4 5 6 7 8 10 12 14 16 18 20 22 23 24 25 26 27 28 29 30 31 32 33 34 35 36 37 38 39 40 41 42 43 44 45 46 47 48 49 50 51 52 53 54 55 56 57 58 59 60 61 62 63 64 65 66 67 68 69 70 71 72 73 74 75 76 77 78 79 80 81 82 83 84 85 86 87 88 89 90 91 92 93 94 95 96 97 98 99 100 101 102 103 104 105 106 107 108 109 110 111 112 113 114 115 116 117 118 119 120 121 122 123 124 125 126 127 128 129 130 131 132 133 134 135 136 137 138 139 140 141 142 143 144 145 146 147 148 149 150 151 152 153 154 155 156 157 158 0
-1 2 0
-3 2 0
-4 2 0
-5 2 0
-6 2 0
-7 2 0
8 2 0
1 3 4 5 6 7 -8 -2 0
2 0
-9 -7 -10 0
7 9 -10 0
-9 7 10 0
9 -7 10 0
-6 -11 -12 0
6 11 -12 0
6 -11 12 0
11 -6 12 0
-5 -13 -14 0
5 13 -14 0
5 -13 14 0
13 -5 14 0
-4 -15 -16 0
4 15 -16 0
4 -15 16 0
15 -4 16 0
-3 -17 -18 0
3 17 -18 0
3 -17 18 0
17 -3 18 0
-1 -19 -20 0
19 1 -20 0
1 -19 20 0
19 -1 20 0
-8 -21 -22 0
21 8 -22 0
8 -21 22 0
21 -8 22 0
-22 23 0
-20 23 0
-18 23 0
-16 23 0
-14 23 0
-12 23 0
-10 23 0
10 12 14 16 18 20 22 -23 0
23 0
-8 -21 -24 0
21 8 -24 0
21 -8 24 0
8 -21 24 0
-21 25 0
8 25 0
8 -21 25 0
21 -8 -25 0
-8 -19 -26 0
19 8 -26 0
19 -8 26 0
8 -19 26 0
-19 27 0
8 27 0
8 -19 27 0
19 -8 -27 0
-8 -17 -28 0
8 17 -28 0
17 -8 28 0
8 -17 28 0
-17 29 0
8 29 0
8 -17 29 0
17 -8 -29 0
-8 -15 -30 0
8 15 -30 0
15 -8 30 0
8 -15 30 0
-15 31 0
8 31 0
8 -15 31 0
15 -8 -31 0
-8 -13 -32 0
8 13 -32 0
13 -8 32 0
8 -13 32 0
-13 33 0
8 33 0
8 -13 33 0
13 -8 -33 0
-8 -11 -34 0
8 11 -34 0
11 -8 34 0
8 -11 34 0
-11 35 0
8 35 0
8 -11 35 0
11 -8 -35 0
-9 -8 -36 0
8 9 -36 0
9 -8 36 0
-9 8 36 0
-9 37 0
8 37 0
-9 8 37 0
9 -8 -37 0
-1 38 0
37 38 0
1 -37 -38 0
-3 39 0
-38 39 0
3 38 -39 0
-4 40 0
-39 40 0
4 39 -40 0
-5 41 0
-40 41 0
5 40 -41 0
-6 42 0
-41 42 0
6 41 -42 0
-7 43 0
-42 43 0
7 42 -43 0
9 -43 -44 0
36 43 -44 0
-9 -43 44 0
-36 43 44 0
9 36 -44 0
-9 -36 44 0
-1 44 -45 0
-1 35 -45 0
35 44 -45 0
1 -44 45 0
1 -35 45 0
-35 -44 45 0
-1 -37 -46 0
1 37 -46 0
1 -37 46 0
-1 37 46 0
-43 47 0
-46 47 0
43 46 -47 0
-3 -47 -48 0
-3 45 -48 0
45 -47 -48 0
3 47 48 0
3 -45 48 0
-45 47 48 0
3 -38 -49 0
-3 38 -49 0
49 -3 -38 0
3 38 49 0
-43 50 0
-49 50 0
43 49 -50 0
-4 -50 -51 0
-4 48 -51 0
48 -50 -51 0
4 50 51 0
4 -48 51 0
-48 50 51 0
4 -39 -52 0
-4 39 -52 0
52 -4 -39 0
4 39 52 0
-43 53 0
-52 53 0
43 52 -53 0
-5 -53 -54 0
-5 51 -54 0
51 -53 -54 0
5 53 54 0
5 -51 54 0
-51 53 54 0
5 -40 -55 0
-5 40 -55 0
55 -5 -40 0
5 40 55 0
-43 56 0
-55 56 0
43 55 -56 0
-6 -56 -57 0
-6 54 -57 0
54 -56 -57 0
6 56 57 0
6 -54 57 0
-54 56 57 0
6 -41 -58 0
-6 41 -58 0
58 -6 -41 0
6 41 58 0
-43 59 0
-58 59 0
43 58 -59 0
-7 -59 -60 0
-7 57 -60 0
57 -59 -60 0
7 59 60 0
7 -57 60 0
-57 59 60 0
34 -60 -61 0
11 60 -61 0
-34 -60 61 0
-11 60 61 0
11 34 -61 0
-11 -34 61 0
-1 61 -62 0
-1 33 -62 0
33 61 -62 0
1 -61 62 0
1 -33 62 0
-33 -61 62 0
1 35 -44 -63 0
-1 -35 -44 -63 0
1 -35 44 -63 0
-1 35 44 -63 0
-1 -35 44 63 0
1 35 44 63 0
-1 35 -44 63 0
1 -35 -44 63 0
-60 63 -64 0
44 60 -64 0
-60 -63 64 0
-44 60 64 0
44 63 -64 0
-44 -63 64 0
-3 64 -65 0
-3 62 -65 0
62 64 -65 0
3 -64 65 0
3 -62 65 0
-62 -64 65 0
3 45 47 -66 0
-3 -45 47 -66 0
3 -45 -47 -66 0
-3 45 -47 -66 0
-3 -45 -47 66 0
3 45 -47 66 0
-3 45 47 66 0
3 -45 47 66 0
-60 66 -67 0
60 -47 -67 0
-60 -66 67 0
47 60 67 0
66 -47 -67 0
47 -66 67 0
-4 67 -68 0
-4 65 -68 0
65 67 -68 0
4 -67 68 0
4 -65 68 0
-65 -67 68 0
4 48 50 -69 0
-4 -48 50 -69 0
4 -48 -50 -69 0
-4 48 -50 -69 0
-4 -48 -50 69 0
4 48 -50 69 0
-4 48 50 69 0
4 -48 50 69 0
-60 69 -70 0
60 -50 -70 0
-60 -69 70 0
50 60 70 0
69 -50 -70 0
50 -69 70 0
-5 70 -71 0
-5 68 -71 0
68 70 -71 0
5 -70 71 0
5 -68 71 0
-68 -70 71 0
5 51 53 -72 0
-5 -51 53 -72 0
5 -51 -53 -72 0
-5 51 -53 -72 0
-5 -51 -53 72 0
5 51 -53 72 0
-5 51 53 72 0
5 -51 53 72 0
-60 72 -73 0
60 -53 -73 0
-60 -72 73 0
53 60 73 0
72 -53 -73 0
53 -72 73 0
-6 73 -74 0
-6 71 -74 0
71 73 -74 0
6 -73 74 0
6 -71 74 0
-71 -73 74 0
6 54 56 -75 0
-6 -54 56 -75 0
6 -54 -56 -75 0
-6 54 -56 -75 0
-6 -54 -56 75 0
6 54 -56 75 0
-6 54 56 75 0
6 -54 56 75 0
-60 75 -76 0
60 -56 -76 0
-60 -75 76 0
56 60 76 0
75 -56 -76 0
56 -75 76 0
-7 76 -77 0
-7 74 -77 0
74 76 -77 0
7 -76 77 0
7 -74 77 0
-74 -76 77 0
32 -77 -78 0
13 77 -78 0
-32 -77 78 0
-13 77 78 0
13 32 -78 0
-13 -32 78 0
-1 78 -79 0
-1 31 -79 0
31 78 -79 0
1 -78 79 0
1 -31 79 0
-31 -78 79 0
1 33 -61 -80 0
-1 -33 -61 -80 0
1 -33 61 -80 0
-1 33 61 -80 0
-1 -33 61 80 0
1 33 61 80 0
-1 33 -61 80 0
1 -33 -61 80 0
-77 80 -81 0
61 77 -81 0
-77 -80 81 0
-61 77 81 0
61 80 -81 0
-61 -80 81 0
-3 81 -82 0
-3 79 -82 0
79 81 -82 0
3 -81 82 0
3 -79 82 0
-79 -81 82 0
3 62 -64 -83 0
-3 -62 -64 -83 0
3 -62 64 -83 0
-3 62 64 -83 0
-3 -62 64 83 0
3 62 64 83 0
-3 62 -64 83 0
3 -62 -64 83 0
-77 83 -84 0
64 77 -84 0
-77 -83 84 0
-64 77 84 0
64 83 -84 0
-64 -83 84 0
-4 84 -85 0
-4 82 -85 0
82 84 -85 0
4 -84 85 0
4 -82 85 0
-82 -84 85 0
4 65 -67 -86 0
-4 -65 -67 -86 0
4 -65 67 -86 0
-4 65 67 -86 0
-4 -65 67 86 0
4 65 67 86 0
-4 65 -67 86 0
4 -65 -67 86 0
-77 86 -87 0
67 77 -87 0
-77 -86 87 0
-67 77 87 0
67 86 -87 0
-67 -86 87 0
-5 87 -88 0
-5 85 -88 0
85 87 -88 0
5 -87 88 0
5 -85 88 0
-85 -87 88 0
5 68 -70 -89 0
-5 -68 -70 -89 0
5 -68 70 -89 0
-5 68 70 -89 0
-5 -68 70 89 0
5 68 70 89 0
-5 68 -70 89 0
5 -68 -70 89 0
-77 89 -90 0
70 77 -90 0
-77 -89 90 0
-70 77 90 0
70 89 -90 0
-70 -89 90 0
-6 90 -91 0
-6 88 -91 0
88 90 -91 0
6 -90 91 0
6 -88 91 0
-88 -90 91 0
6 71 -73 -92 0
-6 -71 -73 -92 0
6 -71 73 -92 0
-6 71 73 -92 0
-6 -71 73 92 0
6 71 73 92 0
-6 71 -73 92 0
6 -71 -73 92 0
-77 92 -93 0
73 77 -93 0
-77 -92 93 0
-73 77 93 0
73 92 -93 0
-73 -92 93 0
-7 93 -94 0
-7 91 -94 0
91 93 -94 0
7 -93 94 0
7 -91 94 0
-91 -93 94 0
30 -94 -95 0
15 94 -95 0
-30 -94 95 0
-15 94 95 0
15 30 -95 0
-15 -30 95 0
-1 95 -96 0
-1 29 -96 0
29 95 -96 0
1 -95 96 0
1 -29 96 0
-29 -95 96 0
1 31 -78 -97 0
-1 -31 -78 -97 0
1 -31 78 -97 0
-1 31 78 -97 0
-1 -31 78 97 0
1 31 78 97 0
-1 31 -78 97 0
1 -31 -78 97 0
-94 97 -98 0
78 94 -98 0
-94 -97 98 0
-78 94 98 0
78 97 -98 0
-78 -97 98 0
-3 98 -99 0
-3 96 -99 0
96 98 -99 0
3 -98 99 0
3 -96 99 0
-96 -98 99 0
3 79 -81 -100 0
-3 -79 -81 -100 0
3 -79 81 -100 0
-3 79 81 -100 0
-3 -79 81 100 0
3 79 81 100 0
-3 79 -81 100 0
3 -79 -81 100 0
-94 100 -101 0
81 94 -101 0
-94 -100 101 0
-81 94 101 0
81 100 -101 0
-81 -100 101 0
-4 101 -102 0
-4 99 -102 0
99 101 -102 0
4 -101 102 0
4 -99 102 0
-99 -101 102 0
4 82 -84 -103 0
-4 -82 -84 -103 0
4 -82 84 -103 0
-4 82 84 -103 0
-4 -82 84 103 0
4 82 84 103 0
-4 82 -84 103 0
4 -82 -84 103 0
-94 103 -104 0
84 94 -104 0
-94 -103 104 0
-84 94 104 0
84 103 -104 0
-84 -103 104 0
-5 104 -105 0
-5 102 -105 0
102 104 -105 0
5 -104 105 0
5 -102 105 0
-102 -104 105 0
5 85 -87 -106 0
-5 -85 -87 -106 0
5 -85 87 -106 0
-5 85 87 -106 0
-5 -85 87 106 0
5 85 87 106 0
-5 85 -87 106 0
5 -85 -87 106 0
-94 106 -107 0
87 94 -107 0
-94 -106 107 0
-87 94 107 0
87 106 -107 0
-87 -106 107 0
-6 107 -108 0
-6 105 -108 0
105 107 -108 0
6 -107 108 0
6 -105 108 0
-105 -107 108 0
6 88 -90 -109 0
-6 -88 -90 -109 0
6 -88 90 -109 0
-6 88 90 -109 0
-6 -88 90 109 0
6 88 90 109 0
-6 88 -90 109 0
6 -88 -90 109 0
-94 109 -110 0
90 94 -110 0
-94 -109 110 0
-90 94 110 0
90 109 -110 0
-90 -109 110 0
-7 110 -111 0
-7 108 -111 0
108 110 -111 0
7 -110 111 0
7 -108 111 0
-108 -110 111 0
28 -111 -112 0
17 111 -112 0
-28 -111 112 0
-17 111 112 0
17 28 -112 0
-17 -28 112 0
-1 112 -113 0
-1 27 -113 0
27 112 -113 0
1 -112 113 0
1 -27 113 0
-27 -112 113 0
1 29 -95 -114 0
-1 -29 -95 -114 0
1 -29 95 -114 0
-1 29 95 -114 0
-1 -29 95 114 0
1 29 95 114 0
-1 29 -95 114 0
1 -29 -95 114 0
-111 114 -115 0
95 111 -115 0
-111 -114 115 0
-95 111 115 0
95 114 -115 0
-95 -114 115 0
-3 115 -116 0
-3 113 -116 0
113 115 -116 0
3 -115 116 0
3 -113 116 0
-113 -115 116 0
3 96 -98 -117 0
-3 -96 -98 -117 0
3 -96 98 -117 0
-3 96 98 -117 0
-3 -96 98 117 0
3 96 98 117 0
-3 96 -98 117 0
3 -96 -98 117 0
-111 117 -118 0
98 111 -118 0
-111 -117 118 0
-98 111 118 0
98 117 -118 0
-98 -117 118 0
-4 118 -119 0
-4 116 -119 0
116 118 -119 0
4 -118 119 0
4 -116 119 0
-116 -118 119 0
4 99 -101 -120 0
-4 -99 -101 -120 0
4 -99 101 -120 0
-4 99 101 -120 0
-4 -99 101 120 0
4 99 101 120 0
-4 99 -101 120 0
4 -99 -101 120 0
-111 120 -121 0
101 111 -121 0
-111 -120 121 0
-101 111 121 0
101 120 -121 0
-101 -120 121 0
-5 121 -122 0
-5 119 -122 0
119 121 -122 0
5 -121 122 0
5 -119 122 0
-119 -121 122 0
5 102 -104 -123 0
-5 -102 -104 -123 0
5 -102 104 -123 0
-5 102 104 -123 0
-5 -102 104 123 0
5 102 104 123 0
-5 102 -104 123 0
5 -102 -104 123 0
-111 123 -124 0
104 111 -124 0
-111 -123 124 0
-104 111 124 0
104 123 -124 0
-104 -123 124 0
-6 124 -125 0
-6 122 -125 0
122 124 -125 0
6 -124 125 0
6 -122 125 0
-122 -124 125 0
6 105 -107 -126 0
-6 -105 -107 -126 0
6 -105 107 -126 0
-6 105 107 -126 0
-6 -105 107 126 0
6 105 107 126 0
-6 105 -107 126 0
6 -105 -107 126 0
-111 126 -127 0
107 111 -127 0
-111 -126 127 0
-107 111 127 0
107 126 -127 0
-107 -126 127 0
-7 127 -128 0
-7 125 -128 0
125 127 -128 0
7 -127 128 0
7 -125 128 0
-125 -127 128 0
26 -128 -129 0
19 128 -129 0
-26 -128 129 0
-19 128 129 0
19 26 -129 0
-19 -26 129 0
-1 129 -130 0
-1 25 -130 0
25 129 -130 0
1 -129 130 0
1 -25 130 0
-25 -129 130 0
1 27 -112 -131 0
-1 -27 -112 -131 0
1 -27 112 -131 0
-1 27 112 -131 0
-1 -27 112 131 0
1 27 112 131 0
-1 27 -112 131 0
1 -27 -112 131 0
-128 131 -132 0
112 128 -132 0
-128 -131 132 0
-112 128 132 0
112 131 -132 0
-112 -131 132 0
-3 132 -133 0
-3 130 -133 0
130 132 -133 0
3 -132 133 0
3 -130 133 0
-130 -132 133 0
3 113 -115 -134 0
-3 -113 -115 -134 0
3 -113 115 -134 0
-3 113 115 -134 0
-3 -113 115 134 0
3 113 115 134 0
-3 113 -115 134 0
3 -113 -115 134 0
-128 134 -135 0
115 128 -135 0
-128 -134 135 0
-115 128 135 0
115 134 -135 0
-115 -134 135 0
-4 135 -136 0
-4 133 -136 0
133 135 -136 0
4 -135 136 0
4 -133 136 0
-133 -135 136 0
4 116 -118 -137 0
-4 -116 -118 -137 0
4 -116 118 -137 0
-4 116 118 -137 0
-4 -116 118 137 0
4 116 118 137 0
-4 116 -118 137 0
4 -116 -118 137 0
-128 137 -138 0
118 128 -138 0
-128 -137 138 0
-118 128 138 0
118 137 -138 0
-118 -137 138 0
-5 138 -139 0
-5 136 -139 0
136 138 -139 0
5 -138 139 0
5 -136 139 0
-136 -138 139 0
5 119 -121 -140 0
-5 -119 -121 -140 0
5 -119 121 -140 0
-5 119 121 -140 0
-5 -119 121 140 0
5 119 121 140 0
-5 119 -121 140 0
5 -119 -121 140 0
-128 140 -141 0
121 128 -141 0
-128 -140 141 0
-121 128 141 0
121 140 -141 0
-121 -140 141 0
-6 141 -142 0
-6 139 -142 0
139 141 -142 0
6 -141 142 0
6 -139 142 0
-139 -141 142 0
6 122 -124 -143 0
-6 -122 -124 -143 0
6 -122 124 -143 0
-6 122 124 -143 0
-6 -122 124 143 0
6 122 124 143 0
-6 122 -124 143 0
6 -122 -124 143 0
-128 143 -144 0
124 128 -144 0
-128 -143 144 0
-124 128 144 0
124 143 -144 0
-124 -143 144 0
-7 144 -145 0
-7 142 -145 0
142 144 -145 0
7 -144 145 0
7 -142 145 0
-142 -144 145 0
24 -145 -146 0
21 145 -146 0
-24 -145 146 0
-21 145 146 0
21 24 -146 0
-21 -24 146 0
-146 0
1 25 -129 -147 0
-1 -25 -129 -147 0
1 -25 129 -147 0
-1 25 129 -147 0
-1 -25 129 147 0
1 25 129 147 0
-1 25 -129 147 0
1 -25 -129 147 0
-145 147 -148 0
129 145 -148 0
-145 -147 148 0
-129 145 148 0
129 147 -148 0
-129 -147 148 0
-148 0
3 130 -132 -149 0
-3 -130 -132 -149 0
3 -130 132 -149 0
-3 130 132 -149 0
-3 -130 132 149 0
3 130 132 149 0
-3 130 -132 149 0
3 -130 -132 149 0
-145 149 -150 0
132 145 -150 0
-145 -149 150 0
-132 145 150 0
132 149 -150 0
-132 -149 150 0
-150 0
4 133 -135 -151 0
-4 -133 -135 -151 0
4 -133 135 -151 0
-4 133 135 -151 0
-4 -133 135 151 0
4 133 135 151 0
-4 133 -135 151 0
4 -133 -135 151 0
-145 151 -152 0
135 145 -152 0
-145 -151 152 0
-135 145 152 0
135 151 -152 0
-135 -151 152 0
-152 0
5 136 -138 -153 0
-5 -136 -138 -153 0
5 -136 138 -153 0
-5 136 138 -153 0
-5 -136 138 153 0
5 136 138 153 0
-5 136 -138 153 0
5 -136 -138 153 0
-145 153 -154 0
138 145 -154 0
-145 -153 154 0
-138 145 154 0
138 153 -154 0
-138 -153 154 0
-154 0
6 139 -141 -155 0
-6 -139 -141 -155 0
6 -139 141 -155 0
-6 139 141 -155 0
-6 -139 141 155 0
6 139 141 155 0
-6 139 -141 155 0
6 -139 -141 155 0
-145 155 -156 0
141 145 -156 0
-145 -155 156 0
-141 145 156 0
141 155 -156 0
-141 -155 156 0
-156 0
7 142 -144 -157 0
-7 -142 -144 -157 0
7 -142 144 -157 0
-7 142 144 -157 0
-7 -142 144 157 0
7 142 144 157 0
-7 142 -144 157 0
7 -142 -144 157 0
-145 157 -158 0
144 145 -158 0
-145 -157 158 0
-144 145 158 0
144 157 -158 0
-144 -157 158 0
-158 0 
